
Gurobi 11.0.0 (win64) logging started Thu May 16 11:07:58 2024

Set parameter LogFile to value "./Results/StripPacking-SequencePairRuns/Logs/SBspL-010-StripPacking-15.log"
Set parameter TimeLimit to value 10800
Set parameter Cuts to value 0
Set parameter Presolve to value 1
Set parameter Heuristics to value 0
Set parameter LPWarmStart to value 2
Gurobi Optimizer version 11.0.0 build v11.0.0rc2 (win64 - Windows 10.0 (19045.2))

CPU model: Intel(R) Core(TM) i9-10980XE CPU @ 3.00GHz, instruction set [SSE2|AVX|AVX2|AVX512]
Thread count: 18 physical cores, 36 logical processors, using up to 18 threads

Optimize a model with 2185 rows, 241 columns and 6960 nonzeros
Model fingerprint: 0x99935c7e
Variable types: 31 continuous, 210 integer (210 binary)
Coefficient statistics:
  Matrix range     [1e+00, 1e+04]
  Objective range  [1e+00, 1e+00]
  Bounds range     [1e+00, 1e+04]
  RHS range        [5e-01, 1e+04]

Warning: Completing partial solution with 210 unfixed non-continuous variables out of 210
User MIP start did not produce a new incumbent solution

Presolve removed 210 rows and 0 columns
Presolve time: 0.02s
Presolved: 1975 rows, 241 columns, 6330 nonzeros
Variable types: 31 continuous, 210 integer (210 binary)

Root relaxation: objective 3.300000e+01, 130 iterations, 0.00 seconds (0.00 work units)
Another try with MIP start

    Nodes    |    Current Node    |     Objective Bounds      |     Work
 Expl Unexpl |  Obj  Depth IntInf | Incumbent    BestBd   Gap | It/Node Time

H    0     0                      64.0000000   33.00000  48.4%     -    0s
     0     0   33.00000    0   30   64.00000   33.00000  48.4%     -    0s
     0     0   33.00000    0   19   64.00000   33.00000  48.4%     -    0s
     0     2   33.00000    0   18   64.00000   33.00000  48.4%     -    0s
*  888   899              48      62.0000000   33.00000  46.8%  23.5    0s
* 1225  1125              39      61.0000000   33.00000  45.9%  21.7    0s
* 1445  1174              58      60.0000000   33.00000  45.0%  22.6    0s
* 2131  1521              59      59.0000000   33.00000  44.1%  23.0    0s
* 4342  2500              43      56.0000000   33.00000  41.1%  22.5    0s
* 4888  2380              45      55.0000000   33.00000  40.0%  22.9    1s
* 5775  2017              37      54.0000000   33.00000  38.9%  23.9    1s
* 6176  1814              44      53.0000000   33.00000  37.7%  24.5    1s
*11445  2174              40      52.0000000   33.00000  36.5%  32.4    1s
*24403  3608              33      51.0000000   39.00000  23.5%  38.7    3s
 37417  4769 infeasible   29        51.00000   44.00000  13.7%  41.0    5s
*46894  2538              32      50.0000000   46.00000  8.00%  42.3    6s
 73600   239     cutoff   26        50.00000   49.00000  2.00%  42.1   10s

Explored 77315 nodes (3274164 simplex iterations) in 10.42 seconds (13.79 work units)
Thread count was 18 (of 36 available processors)

Solution count 10: 50 50 51 ... 60

Optimal solution found (tolerance 1.00e-04)
Best objective 5.000000000000e+01, best bound 5.000000000000e+01, gap 0.0000%

Gurobi 11.0.0 (win64) logging started Fri May 17 19:14:40 2024

Set parameter LogFile to value "./Results/StripPacking-SequencePairRuns/Logs/SBspL-010-StripPacking-15.log"
Set parameter TimeLimit to value 10800
Set parameter Cuts to value 0
Set parameter Presolve to value 1
Set parameter Heuristics to value 0
Set parameter LPWarmStart to value 2
Gurobi Optimizer version 11.0.0 build v11.0.0rc2 (win64 - Windows 10.0 (19045.2))

CPU model: Intel(R) Core(TM) i9-10980XE CPU @ 3.00GHz, instruction set [SSE2|AVX|AVX2|AVX512]
Thread count: 18 physical cores, 36 logical processors, using up to 18 threads

Optimize a model with 3095 rows, 241 columns and 9690 nonzeros
Model fingerprint: 0x11d035fd
Variable types: 31 continuous, 210 integer (210 binary)
Coefficient statistics:
  Matrix range     [1e+00, 1e+04]
  Objective range  [1e+00, 1e+00]
  Bounds range     [1e+00, 1e+04]
  RHS range        [5e-01, 1e+04]

Warning: Completing partial solution with 210 unfixed non-continuous variables out of 210
User MIP start did not produce a new incumbent solution

Presolve removed 210 rows and 0 columns
Presolve time: 0.02s
Presolved: 2885 rows, 241 columns, 9060 nonzeros
Variable types: 31 continuous, 210 integer (210 binary)

Root relaxation: objective 3.300000e+01, 152 iterations, 0.00 seconds (0.01 work units)
Another try with MIP start

    Nodes    |    Current Node    |     Objective Bounds      |     Work
 Expl Unexpl |  Obj  Depth IntInf | Incumbent    BestBd   Gap | It/Node Time

H    0     0                     161.0000000   33.00000  79.5%     -    0s
     0     0   33.00000    0   31  161.00000   33.00000  79.5%     -    0s
     0     0   33.00000    0   18  161.00000   33.00000  79.5%     -    0s
     0     2   33.00000    0   14  161.00000   33.00000  79.5%     -    0s
*  479   481              47      92.0000000   33.00000  64.1%  47.1    0s
*  501   628              42      89.0000000   33.00000  62.9%  46.1    0s
*  525   628              38      84.0000000   33.00000  60.7%  45.0    0s
*  566   628              42      78.0000000   33.00000  57.7%  43.3    0s
*  901   897              53      77.0000000   33.00000  57.1%  39.7    0s
*  947   897              40      75.0000000   33.00000  56.0%  39.1    0s
* 1008   897              47      69.0000000   33.00000  52.2%  38.9    0s
* 1084   998              43      67.0000000   33.00000  50.7%  38.9    0s
* 1085   998              43      66.0000000   33.00000  50.0%  38.8    0s
* 1497  1204              40      63.0000000   33.00000  47.6%  39.2    0s
* 2725  1743              35      62.0000000   33.00000  46.8%  34.6    0s
* 4077  2292              37      61.0000000   33.00000  45.9%  38.4    1s
* 4216  2153              42      60.0000000   33.00000  45.0%  38.7    1s
* 4357  2102              51      59.0000000   33.00000  44.1%  39.3    1s
* 4451  2059              41      57.0000000   33.00000  42.1%  39.5    1s
* 6135  1640              31      56.0000000   33.00000  41.1%  46.2    1s
* 8457  1067              35      55.0000000   33.00000  40.0%  53.9    2s
*12848  1362              34      55.0000000   41.00000  25.5%  64.3    3s
*12970  1386              33      54.0000000   41.00000  24.1%  64.4    3s
 17823  1571   52.00000   26   27   54.00000   47.00000  13.0%  67.0    5s
*27707  1331              38      53.0000000   52.00000  1.89%  68.4    7s
 39985   425   52.00000   32   22   53.00000   52.00000  1.89%  67.0   10s

Explored 47665 nodes (3175100 simplex iterations) in 11.52 seconds (18.17 work units)
Thread count was 18 (of 36 available processors)

Solution count 10: 53 53 54 ... 61

Optimal solution found (tolerance 1.00e-04)
Best objective 5.300000000000e+01, best bound 5.300000000000e+01, gap 0.0000%
